p cnf 1806
-11 -160
-12 -57
-13 -60
-14 -63
-15 -66
-16 -69
-17 -187
-18 -193
-19 -199
-20 -205
-21 -211
-22 -234
-23 -253
-24 -271
-25 -281
-26 -300
-27 -319
-28 -337
-29 -347
-30 -366
-31 -385
-32 -403
-33 -413
-34 -432
-35 -451
-36 -469
-37 -479
-38 -498
-39 -517
-40 -535
-41 -545
-42 -579
-43 1
-43 -17
-1 17 43
-44 2
-44 -18
-2 18 44
-45 3
-45 -19
-3 19 45
-46 4
-46 -20
-4 20 46
-47 5
-47 -21
-5 21 47
-48 -43
-48 44
43 -44 48
-49 -43
-49 -48
43 48 49
-50 45
-50 49
-45 -49 50
-51 49
-51 -50
-49 50 51
-52 46
-52 51
-46 -51 52
-53 51
-53 -52
-51 52 53
-54 47
-54 53
-47 -53 54
-55 -11
-55 43
11 -43 55
-56 11
-56 12
-11 -12 56
-57 -55
-57 -56
55 56 57
-58 -11
-58 48
11 -48 58
-59 11
-59 13
-11 -13 59
-60 -58
-60 -59
58 59 60
-61 -11
-61 50
11 -50 61
-62 11
-62 14
-11 -14 62
-63 -61
-63 -62
61 62 63
-64 -11
-64 52
11 -52 64
-65 11
-65 15
-11 -15 65
-66 -64
-66 -65
64 65 66
-67 -11
-67 54
11 -54 67
-68 11
-68 16
-11 -16 68
-69 -67
-69 -68
67 68 69
-70 1
-70 -57
-1 57 70
-71 2
-71 -60
-2 60 71
-72 3
-72 -63
-3 63 72
-73 4
-73 -66
-4 66 73
-74 5
-74 -69
-5 69 74
-75 22
-75 -23
-22 23 75
-76 -24
-76 -25
24 25 76
-77 75
-77 76
-75 -76 77
-78 -22
-78 -23
22 23 78
-79 -24
-79 25
24 -25 79
-80 78
-80 79
-78 -79 80
-81 -77
-81 -80
77 80 81
-82 70
-82 -81
-70 81 82
-83 26
-83 -27
-26 27 83
-84 -28
-84 -29
28 29 84
-85 83
-85 84
-83 -84 85
-86 -26
-86 -27
26 27 86
-87 -28
-87 29
28 -29 87
-88 86
-88 87
-86 -87 88
-89 -85
-89 -88
85 88 89
-90 71
-90 -89
-71 89 90
-91 30
-91 -31
-30 31 91
-92 -32
-92 -33
32 33 92
-93 91
-93 92
-91 -92 93
-94 -30
-94 -31
30 31 94
-95 -32
-95 33
32 -33 95
-96 94
-96 95
-94 -95 96
-97 -93
-97 -96
93 96 97
-98 72
-98 -97
-72 97 98
-99 34
-99 -35
-34 35 99
-100 -36
-100 -37
36 37 100
-101 99
-101 100
-99 -100 101
-102 -34
-102 -35
34 35 102
-103 -36
-103 37
36 -37 103
-104 102
-104 103
-102 -103 104
-105 -101
-105 -104
101 104 105
-106 73
-106 -105
-73 105 106
-107 38
-107 -39
-38 39 107
-108 -40
-108 -41
40 41 108
-109 107
-109 108
-107 -108 109
-110 -38
-110 -39
38 39 110
-111 -40
-111 41
40 -41 111
-112 110
-112 111
-110 -111 112
-113 -109
-113 -112
109 112 113
-114 74
-114 -113
-74 113 114
-115 -82
-115 -90
82 90 115
-116 -98
-116 -106
98 106 116
-117 115
-117 116
-115 -116 117
-118 -114
-118 117
114 -117 118
-119 -22
-119 23
22 -23 119
-120 24
-120 -25
-24 25 120
-121 119
-121 120
-119 -120 121
-122 24
-122 25
-24 -25 122
-123 75
-123 122
-75 -122 123
-124 -121
-124 -123
121 123 124
-125 70
-125 -124
-70 124 125
-126 -26
-126 27
26 -27 126
-127 28
-127 -29
-28 29 127
-128 126
-128 127
-126 -127 128
-129 28
-129 29
-28 -29 129
-130 83
-130 129
-83 -129 130
-131 -128
-131 -130
128 130 131
-132 71
-132 -131
-71 131 132
-133 -30
-133 31
30 -31 133
-134 32
-134 -33
-32 33 134
-135 133
-135 134
-133 -134 135
-136 32
-136 33
-32 -33 136
-137 91
-137 136
-91 -136 137
-138 -135
-138 -137
135 137 138
-139 72
-139 -138
-72 138 139
-140 -34
-140 35
34 -35 140
-141 36
-141 -37
-36 37 141
-142 140
-142 141
-140 -141 142
-143 36
-143 37
-36 -37 143
-144 99
-144 143
-99 -143 144
-145 -142
-145 -144
142 144 145
-146 73
-146 -145
-73 145 146
-147 -38
-147 39
38 -39 147
-148 40
-148 -41
-40 41 148
-149 147
-149 148
-147 -148 149
-150 40
-150 41
-40 -41 150
-151 107
-151 150
-107 -150 151
-152 -149
-152 -151
149 151 152
-153 74
-153 -152
-74 152 153
-154 -125
-154 -132
125 132 154
-155 -139
-155 -146
139 146 155
-156 154
-156 155
-154 -155 156
-157 -153
-157 156
153 -156 157
-158 11
-158 157
-11 -157 158
-159 118
-159 158
-118 -158 159
-160 118
-160 -159
-118 159 160
-161 -17
-161 18
17 -18 161
-162 -17
-162 -161
17 161 162
-163 19
-163 162
-19 -162 163
-164 162
-164 -163
-162 163 164
-165 20
-165 164
-20 -164 165
-166 164
-166 -165
-164 165 166
-167 21
-167 166
-21 -166 167
-168 78
-168 122
-78 -122 168
-169 70
-169 168
-70 -168 169
-170 86
-170 129
-86 -129 170
-171 71
-171 170
-71 -170 171
-172 94
-172 136
-94 -136 172
-173 72
-173 172
-72 -172 173
-174 102
-174 143
-102 -143 174
-175 73
-175 174
-73 -174 175
-176 110
-176 150
-110 -150 176
-177 74
-177 176
-74 -176 177
-178 -169
-178 -171
169 171 178
-179 -173
-179 -175
173 175 179
-180 178
-180 179
-178 -179 180
-181 -177
-181 180
177 -180 181
-182 75
-182 120
-75 -120 182
-183 70
-183 182
-70 -182 183
-184 17
-184 -181
-17 181 184
-185 17
-185 -184
-17 184 185
-186 -183
-186 185
183 -185 186
-187 -183
-187 -186
183 186 187
-188 83
-188 127
-83 -127 188
-189 71
-189 188
-71 -188 189
-190 161
-190 -181
-161 181 190
-191 18
-191 -190
-18 190 191
-192 -189
-192 191
189 -191 192
-193 -189
-193 -192
189 192 193
-194 91
-194 134
-91 -134 194
-195 72
-195 194
-72 -194 195
-196 163
-196 -181
-163 181 196
-197 19
-197 -196
-19 196 197
-198 -195
-198 197
195 -197 198
-199 -195
-199 -198
195 198 199
-200 99
-200 141
-99 -141 200
-201 73
-201 200
-73 -200 201
-202 165
-202 -181
-165 181 202
-203 20
-203 -202
-20 202 203
-204 -201
-204 203
201 -203 204
-205 -201
-205 -204
201 204 205
-206 107
-206 148
-107 -148 206
-207 74
-207 206
-74 -206 207
-208 167
-208 -181
-167 181 208
-209 21
-209 -208
-21 208 209
-210 -207
-210 209
207 -209 210
-211 -207
-211 -210
207 210 211
-212 -17
-212 -18
17 18 212
-213 -19
-213 -20
19 20 213
-214 212
-214 213
-212 -213 214
-215 -21
-215 214
21 -214 215
-216 -23
-216 -78
23 78 216
-217 24
-217 78
-24 -78 217
-218 -24
-218 -216
24 216 218
-219 -217
-219 -218
217 218 219
-220 -6
-220 22
6 -22 220
-221 22
-221 -220
-22 220 221
-222 23
-222 -221
-23 221 222
-223 6
-223 -22
-6 22 223
-224 -23
-224 223
23 -223 224
-225 -119
-225 -224
119 224 225
-226 24
-226 222
-24 -222 226
-227 -24
-227 -225
24 225 227
-228 -226
-228 -227
226 227 228
-229 25
-229 -219
-25 219 229
-230 -25
-230 -228
25 228 230
-231 -229
-231 -230
229 230 231
-232 70
-232 -231
-70 231 232
-233 22
-233 -70
-22 70 233
-234 -232
-234 -233
232 233 234
-235 22
-235 215
-22 -215 235
-236 -23
-236 235
23 -235 236
-237 -119
-237 -236
119 236 237
-238 24
-238 75
-24 -75 238
-239 -24
-239 -237
24 237 239
-240 -238
-240 -239
238 239 240
-241 23
-241 -222
-23 222 241
-242 -22
-242 -42
22 42 242
-243 23
-243 242
-23 -242 243
-244 -75
-244 -243
75 243 244
-245 24
-245 -241
-24 241 245
-246 -24
-246 -244
24 244 246
-247 -245
-247 -246
245 246 247
-248 25
-248 -240
-25 240 248
-249 -25
-249 -247
25 247 249
-250 -248
-250 -249
248 249 250
-251 70
-251 -250
-70 250 251
-252 23
-252 -70
-23 70 252
-253 -251
-253 -252
251 252 253
-254 22
-254 -215
-22 215 254
-255 22
-255 23
-22 -23 255
-256 -23
-256 254
23 -254 256
-257 -255
-257 -256
255 256 257
-258 -23
-258 24
23 -24 258
-259 -24
-259 -257
24 257 259
-260 -258
-260 -259
258 259 260
-261 -22
-261 42
22 -42 261
-262 -22
-262 -261
22 261 262
-263 23
-263 -262
-23 262 263
-264 -24
-264 263
24 -263 264
-265 -245
-265 -264
245 264 265
-266 25
-266 -260
-25 260 266
-267 -25
-267 -265
25 265 267
-268 -266
-268 -267
266 267 268
-269 70
-269 -268
-70 268 269
-270 24
-270 -70
-24 70 270
-271 -269
-271 -270
269 270 271
-272 24
-272 -258
-24 258 272
-273 6
-273 22
-6 -22 273
-274 23
-274 273
-23 -273 274
-275 24
-275 274
-24 -274 275
-276 25
-276 -272
-25 272 276
-277 -25
-277 275
25 -275 277
-278 -276
-278 -277
276 277 278
-279 70
-279 -278
-70 278 279
-280 25
-280 -70
-25 70 280
-281 -279
-281 -280
279 280 281
-282 -27
-282 -86
27 86 282
-283 28
-283 86
-28 -86 283
-284 -28
-284 -282
28 282 284
-285 -283
-285 -284
283 284 285
-286 -7
-286 26
7 -26 286
-287 26
-287 -286
-26 286 287
-288 27
-288 -287
-27 287 288
-289 7
-289 -26
-7 26 289
-290 -27
-290 289
27 -289 290
-291 -126
-291 -290
126 290 291
-292 28
-292 288
-28 -288 292
-293 -28
-293 -291
28 291 293
-294 -292
-294 -293
292 293 294
-295 29
-295 -285
-29 285 295
-296 -29
-296 -294
29 294 296
-297 -295
-297 -296
295 296 297
-298 71
-298 -297
-71 297 298
-299 26
-299 -71
-26 71 299
-300 -298
-300 -299
298 299 300
-301 26
-301 215
-26 -215 301
-302 -27
-302 301
27 -301 302
-303 -126
-303 -302
126 302 303
-304 28
-304 83
-28 -83 304
-305 -28
-305 -303
28 303 305
-306 -304
-306 -305
304 305 306
-307 27
-307 -288
-27 288 307
-308 -26
-308 -42
26 42 308
-309 27
-309 308
-27 -308 309
-310 -83
-310 -309
83 309 310
-311 28
-311 -307
-28 307 311
-312 -28
-312 -310
28 310 312
-313 -311
-313 -312
311 312 313
-314 29
-314 -306
-29 306 314
-315 -29
-315 -313
29 313 315
-316 -314
-316 -315
314 315 316
-317 71
-317 -316
-71 316 317
-318 27
-318 -71
-27 71 318
-319 -317
-319 -318
317 318 319
-320 26
-320 -215
-26 215 320
-321 26
-321 27
-26 -27 321
-322 -27
-322 320
27 -320 322
-323 -321
-323 -322
321 322 323
-324 -27
-324 28
27 -28 324
-325 -28
-325 -323
28 323 325
-326 -324
-326 -325
324 325 326
-327 -26
-327 42
26 -42 327
-328 -26
-328 -327
26 327 328
-329 27
-329 -328
-27 328 329
-330 -28
-330 329
28 -329 330
-331 -311
-331 -330
311 330 331
-332 29
-332 -326
-29 326 332
-333 -29
-333 -331
29 331 333
-334 -332
-334 -333
332 333 334
-335 71
-335 -334
-71 334 335
-336 28
-336 -71
-28 71 336
-337 -335
-337 -336
335 336 337
-338 28
-338 -324
-28 324 338
-339 7
-339 26
-7 -26 339
-340 27
-340 339
-27 -339 340
-341 28
-341 340
-28 -340 341
-342 29
-342 -338
-29 338 342
-343 -29
-343 341
29 -341 343
-344 -342
-344 -343
342 343 344
-345 71
-345 -344
-71 344 345
-346 29
-346 -71
-29 71 346
-347 -345
-347 -346
345 346 347
-348 -31
-348 -94
31 94 348
-349 32
-349 94
-32 -94 349
-350 -32
-350 -348
32 348 350
-351 -349
-351 -350
349 350 351
-352 -8
-352 30
8 -30 352
-353 30
-353 -352
-30 352 353
-354 31
-354 -353
-31 353 354
-355 8
-355 -30
-8 30 355
-356 -31
-356 355
31 -355 356
-357 -133
-357 -356
133 356 357
-358 32
-358 354
-32 -354 358
-359 -32
-359 -357
32 357 359
-360 -358
-360 -359
358 359 360
-361 33
-361 -351
-33 351 361
-362 -33
-362 -360
33 360 362
-363 -361
-363 -362
361 362 363
-364 72
-364 -363
-72 363 364
-365 30
-365 -72
-30 72 365
-366 -364
-366 -365
364 365 366
-367 30
-367 215
-30 -215 367
-368 -31
-368 367
31 -367 368
-369 -133
-369 -368
133 368 369
-370 32
-370 91
-32 -91 370
-371 -32
-371 -369
32 369 371
-372 -370
-372 -371
370 371 372
-373 31
-373 -354
-31 354 373
-374 -30
-374 -42
30 42 374
-375 31
-375 374
-31 -374 375
-376 -91
-376 -375
91 375 376
-377 32
-377 -373
-32 373 377
-378 -32
-378 -376
32 376 378
-379 -377
-379 -378
377 378 379
-380 33
-380 -372
-33 372 380
-381 -33
-381 -379
33 379 381
-382 -380
-382 -381
380 381 382
-383 72
-383 -382
-72 382 383
-384 31
-384 -72
-31 72 384
-385 -383
-385 -384
383 384 385
-386 30
-386 -215
-30 215 386
-387 30
-387 31
-30 -31 387
-388 -31
-388 386
31 -386 388
-389 -387
-389 -388
387 388 389
-390 -31
-390 32
31 -32 390
-391 -32
-391 -389
32 389 391
-392 -390
-392 -391
390 391 392
-393 -30
-393 42
30 -42 393
-394 -30
-394 -393
30 393 394
-395 31
-395 -394
-31 394 395
-396 -32
-396 395
32 -395 396
-397 -377
-397 -396
377 396 397
-398 33
-398 -392
-33 392 398
-399 -33
-399 -397
33 397 399
-400 -398
-400 -399
398 399 400
-401 72
-401 -400
-72 400 401
-402 32
-402 -72
-32 72 402
-403 -401
-403 -402
401 402 403
-404 32
-404 -390
-32 390 404
-405 8
-405 30
-8 -30 405
-406 31
-406 405
-31 -405 406
-407 32
-407 406
-32 -406 407
-408 33
-408 -404
-33 404 408
-409 -33
-409 407
33 -407 409
-410 -408
-410 -409
408 409 410
-411 72
-411 -410
-72 410 411
-412 33
-412 -72
-33 72 412
-413 -411
-413 -412
411 412 413
-414 -35
-414 -102
35 102 414
-415 36
-415 102
-36 -102 415
-416 -36
-416 -414
36 414 416
-417 -415
-417 -416
415 416 417
-418 -9
-418 34
9 -34 418
-419 34
-419 -418
-34 418 419
-420 35
-420 -419
-35 419 420
-421 9
-421 -34
-9 34 421
-422 -35
-422 421
35 -421 422
-423 -140
-423 -422
140 422 423
-424 36
-424 420
-36 -420 424
-425 -36
-425 -423
36 423 425
-426 -424
-426 -425
424 425 426
-427 37
-427 -417
-37 417 427
-428 -37
-428 -426
37 426 428
-429 -427
-429 -428
427 428 429
-430 73
-430 -429
-73 429 430
-431 34
-431 -73
-34 73 431
-432 -430
-432 -431
430 431 432
-433 34
-433 215
-34 -215 433
-434 -35
-434 433
35 -433 434
-435 -140
-435 -434
140 434 435
-436 36
-436 99
-36 -99 436
-437 -36
-437 -435
36 435 437
-438 -436
-438 -437
436 437 438
-439 35
-439 -420
-35 420 439
-440 -34
-440 -42
34 42 440
-441 35
-441 440
-35 -440 441
-442 -99
-442 -441
99 441 442
-443 36
-443 -439
-36 439 443
-444 -36
-444 -442
36 442 444
-445 -443
-445 -444
443 444 445
-446 37
-446 -438
-37 438 446
-447 -37
-447 -445
37 445 447
-448 -446
-448 -447
446 447 448
-449 73
-449 -448
-73 448 449
-450 35
-450 -73
-35 73 450
-451 -449
-451 -450
449 450 451
-452 34
-452 -215
-34 215 452
-453 34
-453 35
-34 -35 453
-454 -35
-454 452
35 -452 454
-455 -453
-455 -454
453 454 455
-456 -35
-456 36
35 -36 456
-457 -36
-457 -455
36 455 457
-458 -456
-458 -457
456 457 458
-459 -34
-459 42
34 -42 459
-460 -34
-460 -459
34 459 460
-461 35
-461 -460
-35 460 461
-462 -36
-462 461
36 -461 462
-463 -443
-463 -462
443 462 463
-464 37
-464 -458
-37 458 464
-465 -37
-465 -463
37 463 465
-466 -464
-466 -465
464 465 466
-467 73
-467 -466
-73 466 467
-468 36
-468 -73
-36 73 468
-469 -467
-469 -468
467 468 469
-470 36
-470 -456
-36 456 470
-471 9
-471 34
-9 -34 471
-472 35
-472 471
-35 -471 472
-473 36
-473 472
-36 -472 473
-474 37
-474 -470
-37 470 474
-475 -37
-475 473
37 -473 475
-476 -474
-476 -475
474 475 476
-477 73
-477 -476
-73 476 477
-478 37
-478 -73
-37 73 478
-479 -477
-479 -478
477 478 479
-480 -39
-480 -110
39 110 480
-481 40
-481 110
-40 -110 481
-482 -40
-482 -480
40 480 482
-483 -481
-483 -482
481 482 483
-484 -10
-484 38
10 -38 484
-485 38
-485 -484
-38 484 485
-486 39
-486 -485
-39 485 486
-487 10
-487 -38
-10 38 487
-488 -39
-488 487
39 -487 488
-489 -147
-489 -488
147 488 489
-490 40
-490 486
-40 -486 490
-491 -40
-491 -489
40 489 491
-492 -490
-492 -491
490 491 492
-493 41
-493 -483
-41 483 493
-494 -41
-494 -492
41 492 494
-495 -493
-495 -494
493 494 495
-496 74
-496 -495
-74 495 496
-497 38
-497 -74
-38 74 497
-498 -496
-498 -497
496 497 498
-499 38
-499 215
-38 -215 499
-500 -39
-500 499
39 -499 500
-501 -147
-501 -500
147 500 501
-502 40
-502 107
-40 -107 502
-503 -40
-503 -501
40 501 503
-504 -502
-504 -503
502 503 504
-505 39
-505 -486
-39 486 505
-506 -38
-506 -42
38 42 506
-507 39
-507 506
-39 -506 507
-508 -107
-508 -507
107 507 508
-509 40
-509 -505
-40 505 509
-510 -40
-510 -508
40 508 510
-511 -509
-511 -510
509 510 511
-512 41
-512 -504
-41 504 512
-513 -41
-513 -511
41 511 513
-514 -512
-514 -513
512 513 514
-515 74
-515 -514
-74 514 515
-516 39
-516 -74
-39 74 516
-517 -515
-517 -516
515 516 517
-518 38
-518 -215
-38 215 518
-519 38
-519 39
-38 -39 519
-520 -39
-520 518
39 -518 520
-521 -519
-521 -520
519 520 521
-522 -39
-522 40
39 -40 522
-523 -40
-523 -521
40 521 523
-524 -522
-524 -523
522 523 524
-525 -38
-525 42
38 -42 525
-526 -38
-526 -525
38 525 526
-527 39
-527 -526
-39 526 527
-528 -40
-528 527
40 -527 528
-529 -509
-529 -528
509 528 529
-530 41
-530 -524
-41 524 530
-531 -41
-531 -529
41 529 531
-532 -530
-532 -531
530 531 532
-533 74
-533 -532
-74 532 533
-534 40
-534 -74
-40 74 534
-535 -533
-535 -534
533 534 535
-536 40
-536 -522
-40 522 536
-537 10
-537 38
-10 -38 537
-538 39
-538 537
-39 -537 538
-539 40
-539 538
-40 -538 539
-540 41
-540 -536
-41 536 540
-541 -41
-541 539
41 -539 541
-542 -540
-542 -541
540 541 542
-543 74
-543 -542
-74 542 543
-544 41
-544 -74
-41 74 544
-545 -543
-545 -544
543 544 545
-546 76
-546 255
-76 -255 546
-547 70
-547 546
-70 -546 547
-548 84
-548 321
-84 -321 548
-549 71
-549 548
-71 -548 549
-550 92
-550 387
-92 -387 550
-551 72
-551 550
-72 -550 551
-552 100
-552 453
-100 -453 552
-553 73
-553 552
-73 -552 553
-554 108
-554 519
-108 -519 554
-555 74
-555 554
-74 -554 555
-556 -547
-556 -549
547 549 556
-557 -551
-557 -553
551 553 557
-558 556
-558 557
-556 -557 558
-559 -555
-559 558
555 -558 559
-560 79
-560 119
-79 -119 560
-561 70
-561 560
-70 -560 561
-562 87
-562 126
-87 -126 562
-563 71
-563 562
-71 -562 563
-564 95
-564 133
-95 -133 564
-565 72
-565 564
-72 -564 565
-566 103
-566 140
-103 -140 566
-567 73
-567 566
-73 -566 567
-568 111
-568 147
-111 -147 568
-569 74
-569 568
-74 -568 569
-570 -561
-570 -563
561 563 570
-571 -565
-571 -567
565 567 571
-572 570
-572 571
-570 -571 572
-573 -569
-573 572
569 -572 573
-574 -42
-574 -573
42 573 574
-575 42
-575 573
-42 -573 575
-576 -574
-576 -575
574 575 576
-577 -42
-577 -559
42 559 577
-578 559
-578 -576
-559 576 578
-579 -577
-579 -578
577 578 579
-580 120
-580 255
-120 -255 580
-581 -17
-581 580
17 -580 581
-582 127
-582 321
-127 -321 582
-583 -18
-583 582
18 -582 583
-584 134
-584 387
-134 -387 584
-585 -19
-585 584
19 -584 585
-586 141
-586 453
-141 -453 586
-587 -20
-587 586
20 -586 587
-588 148
-588 519
-148 -519 588
-589 -21
-589 588
21 -588 589
-590 581
-590 -583
-581 583 590
-591 -581
-591 583
581 -583 591
-592 -590
-592 -591
590 591 592
-593 581
-593 583
-581 -583 593
-594 -585
-594 -592
585 592 594
-595 585
-595 592
-585 -592 595
-596 -594
-596 -595
594 595 596
-597 585
-597 -592
-585 592 597
-598 593
-598 -597
-593 597 598
-599 -593
-599 597
593 -597 599
-600 -598
-600 -599
598 599 600
-601 593
-601 597
-593 -597 601
-602 -587
-602 -596
587 596 602
-603 587
-603 596
-587 -596 603
-604 -602
-604 -603
602 603 604
-605 587
-605 -596
-587 596 605
-606 -601
-606 -604
601 604 606
-607 601
-607 604
-601 -604 607
-608 -606
-608 -607
606 607 608
-609 601
-609 -604
-601 604 609
-610 -605
-610 -609
605 609 610
-611 -600
-611 610
600 -610 611
-612 600
-612 -610
-600 610 612
-613 -611
-613 -612
611 612 613
-614 -600
-614 -610
600 610 614
-615 -589
-615 -608
589 608 615
-616 589
-616 608
-589 -608 616
-617 -615
-617 -616
615 616 617
-618 589
-618 -608
-589 608 618
-619 -613
-619 -618
613 618 619
-620 613
-620 618
-613 -618 620
-621 -619
-621 -620
619 620 621
-622 -613
-622 618
613 -618 622
-623 614
-623 -622
-614 622 623
-624 -614
-624 622
614 -622 624
-625 -623
-625 -624
623 624 625
-626 614
-626 622
-614 -622 626
-627 -621
-627 625
621 -625 627
-628 625
-628 -627
-625 627 628
-629 -42
-629 -215
42 215 629
-630 42
-630 -559
-42 559 630
-631 628
-631 -630
-628 630 631
-632 -574
-632 -629
574 629 632
-633 631
-633 632
-631 -632 633
-633
